; benchmark generated from python API
(set-info :status unknown)
(declare-datatypes ((IntState 0)) (((Mk1 (val1 Int)) (Mk2 (val2 Int)))))
 (declare-fun c_main_~k~6 () Int)
(declare-fun c_main_~j~6 () Int)
(declare-fun c_main_~i~6 () Int)
(assert
 (let (($x109 (exists ((main_~i~6_st IntState) (val!109 Int) )(let ((?x56 (val2 main_~i~6_st)))
 (let (($x126 (<= ?x56 4)))
 (let (($x66 (and (<= c_main_~j~6 (+ (* 2 ?x56) 1)) $x126 (<= ?x56 c_main_~k~6))))
 (let (($x52 (not (= main_~i~6_st (Mk1 val!109)))))
 (and $x52 $x66))))))
 ))
 (let ((?x131 (* 2 c_main_~i~6)))
 (let (($x73 (<= c_main_~j~6 ?x131)))
 (let (($x139 (<= c_main_~i~6 4)))
 (let (($x86 (<= c_main_~j~6 (+ ?x131 1))))
 (let (($x74 (exists ((main_~i~6 Int) )(let (($x133 (<= main_~i~6 4)))
 (and (<= c_main_~j~6 (+ (* 2 main_~i~6) 1)) $x133 (<= main_~i~6 c_main_~k~6))))
 ))
 (let (($x177 (<= c_main_~i~6 3)))
 (and (and $x86 $x139 $x73 $x177 $x74) (not (and $x86 $x139 $x73 $x109)))))))))))
(check-sat)
